p cnf 200 1376
1 2 3 4 5 0
6 7 8 9 10 0
11 12 13 14 15 0
16 17 18 19 20 0
21 22 23 24 25 0
26 27 28 29 30 0
31 32 33 34 35 0
36 37 38 39 40 0
41 42 43 44 45 0
46 47 48 49 50 0
51 52 53 54 55 0
56 57 58 59 60 0
61 62 63 64 65 0
66 67 68 69 70 0
71 72 73 74 75 0
76 77 78 79 80 0
81 82 83 84 85 0
86 87 88 89 90 0
91 92 93 94 95 0
96 97 98 99 100 0
101 102 103 104 105 0
106 107 108 109 110 0
111 112 113 114 115 0
116 117 118 119 120 0
121 122 123 124 125 0
126 127 128 129 130 0
131 132 133 134 135 0
136 137 138 139 140 0
141 142 143 144 145 0
146 147 148 149 150 0
151 152 153 154 155 0
156 157 158 159 160 0
161 162 163 164 165 0
166 167 168 169 170 0
171 172 173 174 175 0
176 177 178 179 180 0
181 182 183 184 185 0
186 187 188 189 190 0
191 192 193 194 195 0
196 197 198 199 200 0
-1 -2 0
-1 -3 0
-1 -4 0
-1 -5 0
-2 -3 0
-2 -4 0
-2 -5 0
-3 -4 0
-3 -5 0
-4 -5 0
-6 -7 0
-6 -8 0
-6 -9 0
-6 -10 0
-7 -8 0
-7 -9 0
-7 -10 0
-8 -9 0
-8 -10 0
-9 -10 0
-11 -12 0
-11 -13 0
-11 -14 0
-11 -15 0
-12 -13 0
-12 -14 0
-12 -15 0
-13 -14 0
-13 -15 0
-14 -15 0
-16 -17 0
-16 -18 0
-16 -19 0
-16 -20 0
-17 -18 0
-17 -19 0
-17 -20 0
-18 -19 0
-18 -20 0
-19 -20 0
-21 -22 0
-21 -23 0
-21 -24 0
-21 -25 0
-22 -23 0
-22 -24 0
-22 -25 0
-23 -24 0
-23 -25 0
-24 -25 0
-26 -27 0
-26 -28 0
-26 -29 0
-26 -30 0
-27 -28 0
-27 -29 0
-27 -30 0
-28 -29 0
-28 -30 0
-29 -30 0
-31 -32 0
-31 -33 0
-31 -34 0
-31 -35 0
-32 -33 0
-32 -34 0
-32 -35 0
-33 -34 0
-33 -35 0
-34 -35 0
-36 -37 0
-36 -38 0
-36 -39 0
-36 -40 0
-37 -38 0
-37 -39 0
-37 -40 0
-38 -39 0
-38 -40 0
-39 -40 0
-41 -42 0
-41 -43 0
-41 -44 0
-41 -45 0
-42 -43 0
-42 -44 0
-42 -45 0
-43 -44 0
-43 -45 0
-44 -45 0
-46 -47 0
-46 -48 0
-46 -49 0
-46 -50 0
-47 -48 0
-47 -49 0
-47 -50 0
-48 -49 0
-48 -50 0
-49 -50 0
-51 -52 0
-51 -53 0
-51 -54 0
-51 -55 0
-52 -53 0
-52 -54 0
-52 -55 0
-53 -54 0
-53 -55 0
-54 -55 0
-56 -57 0
-56 -58 0
-56 -59 0
-56 -60 0
-57 -58 0
-57 -59 0
-57 -60 0
-58 -59 0
-58 -60 0
-59 -60 0
-61 -62 0
-61 -63 0
-61 -64 0
-61 -65 0
-62 -63 0
-62 -64 0
-62 -65 0
-63 -64 0
-63 -65 0
-64 -65 0
-66 -67 0
-66 -68 0
-66 -69 0
-66 -70 0
-67 -68 0
-67 -69 0
-67 -70 0
-68 -69 0
-68 -70 0
-69 -70 0
-71 -72 0
-71 -73 0
-71 -74 0
-71 -75 0
-72 -73 0
-72 -74 0
-72 -75 0
-73 -74 0
-73 -75 0
-74 -75 0
-76 -77 0
-76 -78 0
-76 -79 0
-76 -80 0
-77 -78 0
-77 -79 0
-77 -80 0
-78 -79 0
-78 -80 0
-79 -80 0
-81 -82 0
-81 -83 0
-81 -84 0
-81 -85 0
-82 -83 0
-82 -84 0
-82 -85 0
-83 -84 0
-83 -85 0
-84 -85 0
-86 -87 0
-86 -88 0
-86 -89 0
-86 -90 0
-87 -88 0
-87 -89 0
-87 -90 0
-88 -89 0
-88 -90 0
-89 -90 0
-91 -92 0
-91 -93 0
-91 -94 0
-91 -95 0
-92 -93 0
-92 -94 0
-92 -95 0
-93 -94 0
-93 -95 0
-94 -95 0
-96 -97 0
-96 -98 0
-96 -99 0
-96 -100 0
-97 -98 0
-97 -99 0
-97 -100 0
-98 -99 0
-98 -100 0
-99 -100 0
-101 -102 0
-101 -103 0
-101 -104 0
-101 -105 0
-102 -103 0
-102 -104 0
-102 -105 0
-103 -104 0
-103 -105 0
-104 -105 0
-106 -107 0
-106 -108 0
-106 -109 0
-106 -110 0
-107 -108 0
-107 -109 0
-107 -110 0
-108 -109 0
-108 -110 0
-109 -110 0
-111 -112 0
-111 -113 0
-111 -114 0
-111 -115 0
-112 -113 0
-112 -114 0
-112 -115 0
-113 -114 0
-113 -115 0
-114 -115 0
-116 -117 0
-116 -118 0
-116 -119 0
-116 -120 0
-117 -118 0
-117 -119 0
-117 -120 0
-118 -119 0
-118 -120 0
-119 -120 0
-121 -122 0
-121 -123 0
-121 -124 0
-121 -125 0
-122 -123 0
-122 -124 0
-122 -125 0
-123 -124 0
-123 -125 0
-124 -125 0
-126 -127 0
-126 -128 0
-126 -129 0
-126 -130 0
-127 -128 0
-127 -129 0
-127 -130 0
-128 -129 0
-128 -130 0
-129 -130 0
-131 -132 0
-131 -133 0
-131 -134 0
-131 -135 0
-132 -133 0
-132 -134 0
-132 -135 0
-133 -134 0
-133 -135 0
-134 -135 0
-136 -137 0
-136 -138 0
-136 -139 0
-136 -140 0
-137 -138 0
-137 -139 0
-137 -140 0
-138 -139 0
-138 -140 0
-139 -140 0
-141 -142 0
-141 -143 0
-141 -144 0
-141 -145 0
-142 -143 0
-142 -144 0
-142 -145 0
-143 -144 0
-143 -145 0
-144 -145 0
-146 -147 0
-146 -148 0
-146 -149 0
-146 -150 0
-147 -148 0
-147 -149 0
-147 -150 0
-148 -149 0
-148 -150 0
-149 -150 0
-151 -152 0
-151 -153 0
-151 -154 0
-151 -155 0
-152 -153 0
-152 -154 0
-152 -155 0
-153 -154 0
-153 -155 0
-154 -155 0
-156 -157 0
-156 -158 0
-156 -159 0
-156 -160 0
-157 -158 0
-157 -159 0
-157 -160 0
-158 -159 0
-158 -160 0
-159 -160 0
-161 -162 0
-161 -163 0
-161 -164 0
-161 -165 0
-162 -163 0
-162 -164 0
-162 -165 0
-163 -164 0
-163 -165 0
-164 -165 0
-166 -167 0
-166 -168 0
-166 -169 0
-166 -170 0
-167 -168 0
-167 -169 0
-167 -170 0
-168 -169 0
-168 -170 0
-169 -170 0
-171 -172 0
-171 -173 0
-171 -174 0
-171 -175 0
-172 -173 0
-172 -174 0
-172 -175 0
-173 -174 0
-173 -175 0
-174 -175 0
-176 -177 0
-176 -178 0
-176 -179 0
-176 -180 0
-177 -178 0
-177 -179 0
-177 -180 0
-178 -179 0
-178 -180 0
-179 -180 0
-181 -182 0
-181 -183 0
-181 -184 0
-181 -185 0
-182 -183 0
-182 -184 0
-182 -185 0
-183 -184 0
-183 -185 0
-184 -185 0
-186 -187 0
-186 -188 0
-186 -189 0
-186 -190 0
-187 -188 0
-187 -189 0
-187 -190 0
-188 -189 0
-188 -190 0
-189 -190 0
-191 -192 0
-191 -193 0
-191 -194 0
-191 -195 0
-192 -193 0
-192 -194 0
-192 -195 0
-193 -194 0
-193 -195 0
-194 -195 0
-196 -197 0
-196 -198 0
-196 -199 0
-196 -200 0
-197 -198 0
-197 -199 0
-197 -200 0
-198 -199 0
-198 -200 0
-199 -200 0
-4 -48 0
-5 -48 0
-5 -49 0
-2 -49 0
-5 -46 0
-4 -46 0
-3 -46 0
-3 -47 0
-2 -48 0
-4 -47 0
-5 -47 0
-2 -50 0
-3 -109 0
-2 -106 0
-4 -109 0
-3 -106 0
-5 -107 0
-5 -108 0
-2 -109 0
-1 -108 0
-1 -106 0
-4 -108 0
-2 -110 0
-4 -106 0
-4 -184 0
-1 -183 0
-5 -181 0
-1 -185 0
-5 -182 0
-5 -185 0
-1 -182 0
-3 -184 0
-5 -183 0
-3 -185 0
-3 -181 0
-1 -184 0
-6 -12 0
-10 -13 0
-9 -12 0
-6 -13 0
-9 -14 0
-8 -13 0
-6 -14 0
-8 -15 0
-6 -11 0
-9 -11 0
-7 -13 0
-6 -15 0
-10 -60 0
-10 -59 0
-9 -59 0
-8 -58 0
-9 -58 0
-8 -60 0
-10 -57 0
-7 -58 0
-6 -57 0
-10 -58 0
-6 -60 0
-8 -56 0
-10 -63 0
-10 -61 0
-7 -64 0
-9 -63 0
-7 -65 0
-8 -63 0
-7 -63 0
-10 -64 0
-9 -62 0
-6 -63 0
-8 -64 0
-7 -61 0
-10 -73 0
-8 -71 0
-9 -73 0
-6 -75 0
-10 -75 0
-10 -74 0
-7 -72 0
-9 -75 0
-7 -73 0
-7 -75 0
-7 -74 0
-6 -72 0
-7 -109 0
-8 -107 0
-6 -106 0
-9 -108 0
-10 -107 0
-10 -106 0
-8 -106 0
-8 -110 0
-10 -109 0
-7 -106 0
-6 -107 0
-7 -108 0
-15 -49 0
-11 -46 0
-12 -50 0
-13 -48 0
-13 -46 0
-11 -50 0
-15 -48 0
-15 -50 0
-14 -49 0
-14 -50 0
-11 -47 0
-14 -47 0
-11 -59 0
-11 -57 0
-12 -57 0
-11 -58 0
-15 -59 0
-11 -56 0
-14 -56 0
-12 -56 0
-12 -59 0
-14 -57 0
-15 -56 0
-15 -60 0
-13 -152 0
-13 -155 0
-14 -155 0
-15 -155 0
-14 -152 0
-11 -152 0
-13 -151 0
-15 -153 0
-15 -151 0
-11 -154 0
-14 -153 0
-13 -153 0
-15 -181 0
-11 -183 0
-14 -184 0
-15 -185 0
-12 -185 0
-14 -183 0
-13 -181 0
-15 -183 0
-13 -182 0
-14 -181 0
-13 -185 0
-11 -181 0
-18 -50 0
-19 -50 0
-19 -48 0
-20 -48 0
-19 -46 0
-19 -47 0
-18 -49 0
-18 -48 0
-17 -50 0
-20 -50 0
-18 -47 0
-18 -46 0
-19 -153 0
-16 -155 0
-16 -152 0
-18 -153 0
-17 -151 0
-18 -154 0
-16 -154 0
-20 -153 0
-17 -152 0
-17 -153 0
-19 -152 0
-19 -151 0
-16 -198 0
-20 -196 0
-17 -200 0
-19 -200 0
-18 -197 0
-20 -200 0
-19 -197 0
-16 -200 0
-17 -198 0
-19 -196 0
-19 -198 0
-18 -196 0
-24 -102 0
-25 -101 0
-25 -105 0
-22 -101 0
-24 -104 0
-25 -104 0
-21 -105 0
-22 -105 0
-22 -104 0
-25 -102 0
-22 -103 0
-23 -105 0
-21 -106 0
-23 -108 0
-21 -107 0
-25 -106 0
-23 -109 0
-24 -108 0
-24 -110 0
-21 -110 0
-24 -106 0
-23 -110 0
-21 -109 0
-22 -110 0
-25 -125 0
-21 -125 0
-24 -123 0
-21 -124 0
-25 -121 0
-23 -124 0
-22 -121 0
-21 -122 0
-22 -124 0
-23 -125 0
-25 -122 0
-21 -121 0
-24 -130 0
-25 -128 0
-21 -126 0
-23 -127 0
-24 -129 0
-22 -126 0
-24 -127 0
-22 -130 0
-21 -129 0
-22 -129 0
-24 -128 0
-25 -130 0
-30 -50 0
-26 -48 0
-29 -47 0
-28 -50 0
-28 -48 0
-27 -46 0
-29 -49 0
-29 -46 0
-28 -49 0
-28 -47 0
-30 -46 0
-29 -48 0
-27 -75 0
-29 -74 0
-29 -73 0
-26 -71 0
-26 -75 0
-28 -71 0
-30 -72 0
-26 -73 0
-27 -72 0
-26 -74 0
-28 -75 0
-29 -72 0
-28 -80 0
-28 -78 0
-29 -77 0
-26 -77 0
-26 -78 0
-30 -80 0
-27 -77 0
-30 -78 0
-27 -80 0
-26 -80 0
-29 -80 0
-27 -78 0
-26 -149 0
-27 -146 0
-30 -150 0
-26 -148 0
-26 -146 0
-30 -149 0
-30 -148 0
-29 -149 0
-28 -146 0
-27 -150 0
-27 -149 0
-29 -148 0
-34 -48 0
-34 -49 0
-33 -46 0
-33 -50 0
-33 -48 0
-35 -48 0
-35 -47 0
-35 -46 0
-32 -46 0
-34 -46 0
-33 -49 0
-31 -47 0
-32 -69 0
-33 -69 0
-33 -66 0
-34 -67 0
-33 -70 0
-31 -66 0
-35 -67 0
-35 -69 0
-33 -68 0
-34 -68 0
-32 -68 0
-32 -66 0
-32 -126 0
-31 -126 0
-34 -127 0
-32 -127 0
-31 -127 0
-32 -129 0
-35 -128 0
-34 -130 0
-35 -126 0
-35 -129 0
-33 -130 0
-34 -126 0
-35 -149 0
-34 -149 0
-34 -147 0
-31 -150 0
-32 -147 0
-31 -147 0
-32 -150 0
-35 -147 0
-32 -148 0
-33 -148 0
-35 -150 0
-33 -150 0
-32 -191 0
-32 -193 0
-31 -193 0
-34 -195 0
-35 -191 0
-35 -194 0
-31 -195 0
-32 -194 0
-35 -192 0
-33 -193 0
-33 -192 0
-31 -194 0
-40 -81 0
-40 -85 0
-39 -83 0
-37 -81 0
-39 -81 0
-36 -84 0
-36 -81 0
-39 -84 0
-39 -82 0
-40 -83 0
-38 -84 0
-37 -82 0
-44 -58 0
-43 -56 0
-41 -60 0
-43 -57 0
-42 -59 0
-44 -60 0
-43 -60 0
-45 -60 0
-41 -58 0
-42 -57 0
-45 -57 0
-41 -59 0
-43 -77 0
-41 -78 0
-45 -79 0
-41 -80 0
-42 -76 0
-43 -80 0
-41 -76 0
-42 -77 0
-44 -79 0
-44 -78 0
-41 -77 0
-43 -79 0
-43 -93 0
-45 -95 0
-44 -94 0
-41 -95 0
-42 -94 0
-42 -93 0
-43 -91 0
-41 -93 0
-45 -91 0
-43 -95 0
-41 -94 0
-44 -91 0
-45 -158 0
-43 -157 0
-44 -160 0
-41 -160 0
-44 -158 0
-44 -157 0
-41 -158 0
-44 -159 0
-42 -160 0
-43 -160 0
-45 -160 0
-41 -156 0
-42 -182 0
-43 -184 0
-45 -183 0
-44 -183 0
-43 -182 0
-41 -182 0
-45 -181 0
-43 -185 0
-41 -183 0
-42 -185 0
-41 -184 0
-42 -183 0
-47 -62 0
-49 -64 0
-50 -64 0
-48 -63 0
-49 -62 0
-46 -64 0
-48 -62 0
-46 -61 0
-46 -62 0
-46 -65 0
-48 -61 0
-48 -65 0
-53 -58 0
-53 -60 0
-54 -59 0
-52 -60 0
-55 -57 0
-54 -56 0
-52 -59 0
-52 -58 0
-51 -59 0
-55 -56 0
-53 -57 0
-51 -56 0
-54 -88 0
-54 -90 0
-51 -88 0
-52 -89 0
-55 -86 0
-52 -87 0
-55 -88 0
-51 -90 0
-54 -87 0
-53 -88 0
-52 -90 0
-54 -86 0
-51 -159 0
-52 -156 0
-55 -157 0
-54 -159 0
-52 -157 0
-54 -158 0
-53 -160 0
-54 -160 0
-55 -156 0
-52 -159 0
-51 -160 0
-52 -160 0
-55 -162 0
-54 -163 0
-54 -165 0
-51 -163 0
-54 -164 0
-53 -162 0
-53 -164 0
-53 -163 0
-52 -161 0
-52 -164 0
-54 -161 0
-53 -165 0
-51 -183 0
-51 -182 0
-53 -182 0
-55 -181 0
-52 -185 0
-55 -183 0
-54 -181 0
-55 -182 0
-51 -181 0
-54 -184 0
-53 -181 0
-55 -185 0
-58 -69 0
-60 -66 0
-60 -69 0
-59 -66 0
-57 -68 0
-57 -69 0
-59 -69 0
-56 -68 0
-58 -70 0
-60 -68 0
-56 -67 0
-57 -70 0
-56 -156 0
-57 -160 0
-58 -160 0
-59 -158 0
-56 -157 0
-59 -160 0
-59 -156 0
-60 -157 0
-60 -156 0
-57 -156 0
-59 -157 0
-58 -157 0
-56 -178 0
-58 -176 0
-57 -177 0
-56 -180 0
-57 -178 0
-58 -180 0
-56 -176 0
-57 -180 0
-59 -178 0
-60 -176 0
-60 -179 0
-58 -179 0
-61 -67 0
-65 -67 0
-63 -68 0
-62 -68 0
-61 -68 0
-65 -68 0
-63 -66 0
-62 -67 0
-64 -69 0
-62 -70 0
-64 -67 0
-65 -66 0
-63 -120 0
-62 -120 0
-65 -120 0
-64 -120 0
-63 -118 0
-61 -118 0
-65 -118 0
-64 -118 0
-61 -116 0
-63 -116 0
-61 -119 0
-61 -117 0
-65 -199 0
-65 -200 0
-61 -196 0
-62 -198 0
-63 -197 0
-63 -200 0
-61 -198 0
-63 -199 0
-62 -197 0
-61 -197 0
-62 -196 0
-64 -196 0
-68 -163 0
-68 -162 0
-68 -161 0
-67 -162 0
-69 -165 0
-68 -165 0
-69 -163 0
-68 -164 0
-66 -161 0
-70 -163 0
-70 -164 0
-67 -163 0
-71 -83 0
-72 -81 0
-72 -84 0
-73 -84 0
-75 -85 0
-75 -82 0
-74 -81 0
-71 -85 0
-73 -83 0
-71 -81 0
-73 -85 0
-72 -85 0
-72 -155 0
-73 -151 0
-75 -151 0
-71 -155 0
-75 -152 0
-73 -155 0
-74 -153 0
-74 -154 0
-72 -153 0
-75 -153 0
-75 -154 0
-73 -152 0
-75 -179 0
-74 -178 0
-72 -178 0
-74 -176 0
-71 -177 0
-73 -180 0
-71 -176 0
-75 -176 0
-71 -180 0
-73 -176 0
-71 -179 0
-73 -178 0
-79 -121 0
-78 -123 0
-80 -125 0
-79 -122 0
-79 -123 0
-79 -125 0
-77 -124 0
-77 -123 0
-77 -121 0
-80 -123 0
-80 -124 0
-77 -122 0
-78 -193 0
-77 -192 0
-76 -195 0
-77 -193 0
-79 -193 0
-78 -191 0
-78 -195 0
-78 -194 0
-80 -195 0
-80 -191 0
-79 -195 0
-76 -193 0
-84 -100 0
-82 -96 0
-83 -99 0
-83 -96 0
-82 -97 0
-81 -99 0
-82 -98 0
-85 -96 0
-85 -100 0
-83 -98 0
-83 -100 0
-82 -99 0
-84 -198 0
-81 -196 0
-84 -197 0
-81 -197 0
-85 -200 0
-84 -200 0
-81 -199 0
-82 -198 0
-84 -196 0
-83 -200 0
-81 -200 0
-82 -200 0
-88 -103 0
-90 -102 0
-88 -101 0
-90 -103 0
-88 -102 0
-89 -104 0
-90 -104 0
-86 -101 0
-87 -101 0
-87 -103 0
-88 -105 0
-88 -104 0
-88 -167 0
-90 -168 0
-89 -167 0
-86 -169 0
-86 -167 0
-90 -169 0
-90 -170 0
-88 -170 0
-89 -170 0
-90 -166 0
-89 -166 0
-86 -166 0
-91 -142 0
-91 -143 0
-93 -144 0
-93 -141 0
-95 -145 0
-95 -141 0
-91 -145 0
-91 -141 0
-94 -142 0
-94 -144 0
-95 -142 0
-93 -142 0
-94 -187 0
-91 -189 0
-94 -189 0
-91 -188 0
-91 -187 0
-91 -190 0
-92 -190 0
-91 -186 0
-92 -186 0
-92 -187 0
-92 -189 0
-94 -186 0
-99 -149 0
-99 -146 0
-97 -149 0
-98 -146 0
-99 -150 0
-98 -147 0
-100 -149 0
-96 -150 0
-99 -147 0
-98 -148 0
-96 -149 0
-100 -147 0
-105 -172 0
-103 -174 0
-104 -174 0
-102 -173 0
-102 -174 0
-105 -175 0
-101 -173 0
-103 -171 0
-103 -173 0
-101 -171 0
-102 -172 0
-104 -172 0
-107 -117 0
-110 -117 0
-107 -118 0
-107 -119 0
-109 -118 0
-108 -117 0
-108 -116 0
-107 -116 0
-106 -119 0
-110 -119 0
-106 -118 0
-108 -119 0
-112 -187 0
-113 -188 0
-111 -187 0
-115 -187 0
-114 -187 0
-113 -189 0
-114 -190 0
-115 -188 0
-112 -188 0
-113 -190 0
-115 -186 0
-111 -190 0
-119 -126 0
-119 -130 0
-120 -128 0
-120 -126 0
-118 -130 0
-119 -129 0
-117 -127 0
-116 -128 0
-119 -128 0
-117 -128 0
-117 -130 0
-120 -127 0
-123 -158 0
-125 -157 0
-122 -157 0
-122 -156 0
-123 -159 0
-123 -160 0
-124 -157 0
-125 -159 0
-124 -156 0
-123 -157 0
-121 -159 0
-122 -160 0
-126 -137 0
-126 -140 0
-126 -138 0
-128 -137 0
-128 -136 0
-126 -136 0
-127 -137 0
-127 -140 0
-129 -136 0
-128 -138 0
-129 -139 0
-129 -140 0
-131 -176 0
-135 -179 0
-135 -177 0
-131 -180 0
-135 -178 0
-131 -177 0
-134 -178 0
-134 -176 0
-132 -180 0
-132 -177 0
-132 -176 0
-133 -177 0
-138 -144 0
-140 -141 0
-137 -141 0
-136 -143 0
-139 -143 0
-137 -142 0
-136 -142 0
-138 -142 0
-137 -145 0
-140 -143 0
-140 -145 0
-136 -141 0
-138 -193 0
-137 -195 0
-136 -191 0
-139 -192 0
-136 -194 0
-140 -191 0
-139 -194 0
-139 -195 0
-137 -193 0
-138 -191 0
-136 -192 0
-137 -192 0
-142 -146 0
-141 -147 0
-143 -147 0
-142 -147 0
-141 -148 0
-141 -150 0
-142 -148 0
-145 -149 0
-144 -149 0
-145 -150 0
-144 -150 0
-145 -146 0
-144 -151 0
-143 -153 0
-143 -155 0
-142 -152 0
-142 -153 0
-141 -152 0
-143 -151 0
-145 -155 0
-141 -151 0
-142 -151 0
-141 -155 0
-143 -154 0
-141 -180 0
-145 -180 0
-144 -178 0
-145 -178 0
-142 -176 0
-145 -179 0
-144 -177 0
-143 -180 0
-142 -179 0
-142 -180 0
-142 -177 0
-143 -177 0
-145 -194 0
-142 -195 0
-145 -193 0
-144 -193 0
-142 -192 0
-145 -191 0
-144 -194 0
-144 -191 0
-142 -193 0
-143 -193 0
-144 -192 0
-145 -195 0
-147 -169 0
-150 -167 0
-148 -167 0
-146 -169 0
-147 -166 0
-149 -169 0
-147 -170 0
-150 -168 0
-148 -166 0
-146 -167 0
-150 -169 0
-150 -166 0
-153 -185 0
-155 -184 0
-155 -183 0
-153 -181 0
-151 -184 0
-152 -182 0
-152 -185 0
-154 -184 0
-151 -183 0
-154 -182 0
-154 -185 0
-153 -182 0
-157 -163 0
-156 -161 0
-156 -162 0
-160 -165 0
-157 -165 0
-157 -161 0
-160 -163 0
-160 -164 0
-159 -163 0
-158 -164 0
-159 -161 0
-158 -161 0
-172 -179 0
-175 -180 0
-171 -177 0
-173 -179 0
-174 -179 0
-175 -177 0
-171 -176 0
-171 -179 0
-173 -178 0
-174 -178 0
-174 -180 0
-173 -176 0
-177 -181 0
-176 -184 0
-176 -183 0
-180 -185 0
-179 -182 0
-180 -181 0
-180 -183 0
-178 -185 0
-177 -185 0
-176 -181 0
-178 -184 0
-179 -185 0
-182 -193 0
-183 -192 0
-183 -195 0
-184 -192 0
-181 -191 0
-185 -191 0
-182 -195 0
-182 -192 0
-185 -195 0
-185 -194 0
-182 -191 0
-181 -194 0
